(set-logic HORN)

(declare-datatypes ((Nat_0 0)) (((Z_2 ) (Z_3  (unS_0 Nat_0)))))
(declare-datatypes ((list_0 0)) (((nil_0 ) (cons_0  (head_0 Nat_0) (tail_0 list_0)))))

(declare-fun |diseqNat_0| ( Nat_0 Nat_0 ) Bool)
(declare-fun |x_3| ( list_0 list_0 list_0 ) Bool)
(declare-fun |diseqlist_0| ( list_0 list_0 ) Bool)
(declare-fun |butlast_0| ( list_0 list_0 ) Bool)

(assert
  (forall ( (A Nat_0) (B Nat_0) (v_2 Nat_0) ) 
    (=>
      (and
        (and (= A (Z_3 B)) (= v_2 Z_2))
      )
      (diseqNat_0 v_2 A)
    )
  )
)
(assert
  (forall ( (A Nat_0) (B Nat_0) (v_2 Nat_0) ) 
    (=>
      (and
        (and (= A (Z_3 B)) (= v_2 Z_2))
      )
      (diseqNat_0 A v_2)
    )
  )
)
(assert
  (forall ( (A Nat_0) (B Nat_0) (C Nat_0) (D Nat_0) ) 
    (=>
      (and
        (diseqNat_0 C D)
        (and (= A (Z_3 D)) (= B (Z_3 C)))
      )
      (diseqNat_0 B A)
    )
  )
)
(assert
  (forall ( (A list_0) (B Nat_0) (C list_0) (v_3 list_0) ) 
    (=>
      (and
        (and (= A (cons_0 B C)) (= v_3 nil_0))
      )
      (diseqlist_0 v_3 A)
    )
  )
)
(assert
  (forall ( (A list_0) (B Nat_0) (C list_0) (v_3 list_0) ) 
    (=>
      (and
        (and (= A (cons_0 B C)) (= v_3 nil_0))
      )
      (diseqlist_0 A v_3)
    )
  )
)
(assert
  (forall ( (A list_0) (B list_0) (C Nat_0) (D list_0) (E Nat_0) (F list_0) ) 
    (=>
      (and
        (diseqNat_0 C E)
        (and (= B (cons_0 C D)) (= A (cons_0 E F)))
      )
      (diseqlist_0 B A)
    )
  )
)
(assert
  (forall ( (A list_0) (B list_0) (C Nat_0) (D list_0) (E Nat_0) (F list_0) ) 
    (=>
      (and
        (diseqlist_0 D F)
        (and (= B (cons_0 C D)) (= A (cons_0 E F)))
      )
      (diseqlist_0 B A)
    )
  )
)
(assert
  (forall ( (A list_0) (B list_0) (C list_0) (D list_0) (E Nat_0) (F list_0) (G Nat_0) ) 
    (=>
      (and
        (butlast_0 D A)
        (and (= B (cons_0 G (cons_0 E F))) (= C (cons_0 G D)) (= A (cons_0 E F)))
      )
      (butlast_0 C B)
    )
  )
)
(assert
  (forall ( (A list_0) (B Nat_0) (v_2 list_0) ) 
    (=>
      (and
        (and (= A (cons_0 B nil_0)) (= v_2 nil_0))
      )
      (butlast_0 v_2 A)
    )
  )
)
(assert
  (forall ( (v_0 list_0) (v_1 list_0) ) 
    (=>
      (and
        (and true (= v_0 nil_0) (= v_1 nil_0))
      )
      (butlast_0 v_0 v_1)
    )
  )
)
(assert
  (forall ( (A list_0) (B list_0) (C list_0) (D Nat_0) (E list_0) (F list_0) ) 
    (=>
      (and
        (x_3 C E F)
        (and (= B (cons_0 D C)) (= A (cons_0 D E)))
      )
      (x_3 B A F)
    )
  )
)
(assert
  (forall ( (A list_0) (v_1 list_0) (v_2 list_0) ) 
    (=>
      (and
        (and true (= v_1 nil_0) (= v_2 A))
      )
      (x_3 A v_1 v_2)
    )
  )
)
(assert
  (forall ( (A list_0) (B list_0) (C list_0) (D list_0) (E Nat_0) ) 
    (=>
      (and
        (diseqlist_0 C D)
        (butlast_0 C B)
        (x_3 B D A)
        (= A (cons_0 E nil_0))
      )
      false
    )
  )
)

(check-sat)
(exit)
